15
-1 47 42 53 53 57 82 84 97 91 56 58 28 34 81
87 -1 54 52 83 13 17 58 60 83 24 20 86 74 90
90 34 -1 41 48 14 57 35 8 18 99 81 62 9 36
99 42 75 -1 70 70 86 98 58 70 55 59 78 59 94
38 96 12 29 -1 26 37 19 84 13 7 63 62 31 94
31 100 25 60 9 -1 8 6 44 36 77 4 32 99 41
72 66 30 35 12 6 -1 76 48 83 6 18 51 84 81
20 28 61 51 43 90 35 -1 93 9 79 43 71 52 8
78 17 7 53 25 53 19 34 -1 5 21 68 7 30 60
92 32 89 87 27 93 91 69 92 -1 70 62 85 68 60
98 93 83 40 46 89 87 78 64 56 -1 51 1 54 46
27 94 13 44 99 68 69 19 65 83 62 -1 51 17 5
98 47 40 87 66 52 19 98 40 64 89 83 -1 13 31
57 14 60 76 57 61 68 14 63 60 11 27 3 -1 4
19 98 71 13 5 85 56 67 57 57 100 70 35 20 -1

